Route #1: 40 5 12 9 38 22 50 23 43
Route #2: 46 8 28 44 51 14 17 10 18
Route #3: 45 41 29 37 15 7 19
Route #4: 53 6 24 42 47 39 4 26 21
Route #5: 25 1 52 16 35 27
Route #6: 3 36 32 48
Route #7: 2 30 54 34 31 20 55 11 33 49 13
Cost 710
Time 0.092271
